p cnf 69 135
-1 69 0 
-2 69 0 
-3 5 7 8 47 69 0 
-4 62 69 0 
-5 3 7 8 47 69 0 
-6 9 14 18 44 69 0 
-7 3 5 8 47 69 0 
-8 3 5 7 47 69 0 
-9 6 14 18 44 69 0 
-10 11 12 23 24 37 38 42 45 69 0 
-11 10 12 23 24 37 38 42 45 69 0 
-12 10 11 23 24 37 38 42 45 69 0 
-13 15 16 17 19 20 21 22 36 39 40 41 43 46 50 51 52 53 54 55 56 57 58 59 63 64 65 66 67 68 69 0 
-14 6 9 18 44 69 0 
-15 13 16 17 19 20 21 22 36 39 40 41 43 46 50 51 52 53 54 55 56 57 58 59 63 64 65 66 67 68 69 0 
-16 13 15 17 19 20 21 22 36 39 40 41 43 46 50 51 52 53 54 55 56 57 58 59 63 64 65 66 67 68 69 0 
-17 13 15 16 19 20 21 22 36 39 40 41 43 46 50 51 52 53 54 55 56 57 58 59 63 64 65 66 67 68 69 0 
-18 6 9 14 44 69 0 
-19 13 15 16 17 20 21 22 36 39 40 41 43 46 50 51 52 53 54 55 56 57 58 59 63 64 65 66 67 68 69 0 
-20 13 15 16 17 19 21 22 36 39 40 41 43 46 50 51 52 53 54 55 56 57 58 59 63 64 65 66 67 68 69 0 
-21 13 15 16 17 19 20 22 36 39 40 41 43 46 50 51 52 53 54 55 56 57 58 59 63 64 65 66 67 68 69 0 
-22 13 15 16 17 19 20 21 36 39 40 41 43 46 50 51 52 53 54 55 56 57 58 59 63 64 65 66 67 68 69 0 
-23 10 11 12 24 37 38 42 45 69 0 
-24 10 11 12 23 37 38 42 45 69 0 
-25 32 69 0 
-26 69 0 
-27 -28 34 69 0 
-29 69 0 
-30 69 0 
-31 -32 25 -33 69 0 
-34 28 69 0 
-35 69 0 
-36 13 15 16 17 19 20 21 22 39 40 41 43 46 50 51 52 53 54 55 56 57 58 59 63 64 65 66 67 68 69 0 
-37 10 11 12 23 24 38 42 45 69 0 
-38 10 11 12 23 24 37 42 45 69 0 
-39 13 15 16 17 19 20 21 22 36 40 41 43 46 50 51 52 53 54 55 56 57 58 59 63 64 65 66 67 68 69 0 
-40 13 15 16 17 19 20 21 22 36 39 41 43 46 50 51 52 53 54 55 56 57 58 59 63 64 65 66 67 68 69 0 
-41 13 15 16 17 19 20 21 22 36 39 40 43 46 50 51 52 53 54 55 56 57 58 59 63 64 65 66 67 68 69 0 
-42 10 11 12 23 24 37 38 45 69 0 
-43 13 15 16 17 19 20 21 22 36 39 40 41 46 50 51 52 53 54 55 56 57 58 59 63 64 65 66 67 68 69 0 
-44 6 9 14 18 69 0 
-45 10 11 12 23 24 37 38 42 69 0 
-46 13 15 16 17 19 20 21 22 36 39 40 41 43 50 51 52 53 54 55 56 57 58 59 63 64 65 66 67 68 69 0 
-47 3 5 7 8 69 0 
-48 61 69 0 
-27 -49 -35 69 0 
-50 13 15 16 17 19 20 21 22 36 39 40 41 43 46 51 52 53 54 55 56 57 58 59 63 64 65 66 67 68 69 0 
-51 13 15 16 17 19 20 21 22 36 39 40 41 43 46 50 52 53 54 55 56 57 58 59 63 64 65 66 67 68 69 0 
-52 13 15 16 17 19 20 21 22 36 39 40 41 43 46 50 51 53 54 55 56 57 58 59 63 64 65 66 67 68 69 0 
-53 13 15 16 17 19 20 21 22 36 39 40 41 43 46 50 51 52 54 55 56 57 58 59 63 64 65 66 67 68 69 0 
-54 13 15 16 17 19 20 21 22 36 39 40 41 43 46 50 51 52 53 55 56 57 58 59 63 64 65 66 67 68 69 0 
-55 13 15 16 17 19 20 21 22 36 39 40 41 43 46 50 51 52 53 54 56 57 58 59 63 64 65 66 67 68 69 0 
-56 13 15 16 17 19 20 21 22 36 39 40 41 43 46 50 51 52 53 54 55 57 58 59 63 64 65 66 67 68 69 0 
-57 13 15 16 17 19 20 21 22 36 39 40 41 43 46 50 51 52 53 54 55 56 58 59 63 64 65 66 67 68 69 0 
-58 13 15 16 17 19 20 21 22 36 39 40 41 43 46 50 51 52 53 54 55 56 57 59 63 64 65 66 67 68 69 0 
-59 13 15 16 17 19 20 21 22 36 39 40 41 43 46 50 51 52 53 54 55 56 57 58 63 64 65 66 67 68 69 0 
-60 69 0 
-61 48 69 0 
-62 4 69 0 
-63 13 15 16 17 19 20 21 22 36 39 40 41 43 46 50 51 52 53 54 55 56 57 58 59 64 65 66 67 68 69 0 
-64 13 15 16 17 19 20 21 22 36 39 40 41 43 46 50 51 52 53 54 55 56 57 58 59 63 65 66 67 68 69 0 
-65 13 15 16 17 19 20 21 22 36 39 40 41 43 46 50 51 52 53 54 55 56 57 58 59 63 64 66 67 68 69 0 
-66 13 15 16 17 19 20 21 22 36 39 40 41 43 46 50 51 52 53 54 55 56 57 58 59 63 64 65 67 68 69 0 
-67 13 15 16 17 19 20 21 22 36 39 40 41 43 46 50 51 52 53 54 55 56 57 58 59 63 64 65 66 68 69 0 
-27 69 0 
-68 13 15 16 17 19 20 21 22 36 39 40 41 43 46 50 51 52 53 54 55 56 57 58 59 63 64 65 66 67 69 0 
-9 16 58 0 
25 -53 -57 0 
-11 -19 -62 0 
-41 -52 57 0 
-1 -14 -46 0 
-2 -18 21 0 
4 13 53 0 
26 -55 66 0 
1 35 37 0 
43 -45 63 0 
-12 -14 -56 0 
43 -48 -69 0 
-1 19 -44 0 
46 57 -67 0 
-26 27 62 0 
14 32 -48 0 
-3 -29 52 0 
13 49 -57 0 
12 -19 32 0 
18 -26 -59 0 
-9 -18 -69 0 
-42 -56 61 0 
1 23 -33 0 
11 -16 -31 0 
-1 -3 -38 0 
-5 -10 -53 0 
-23 57 -65 0 
11 -29 34 0 
-18 41 -57 0 
-17 23 57 0 
-33 -47 48 0 
-4 35 -38 0 
-31 32 37 0 
1 -46 -57 0 
-29 -54 62 0 
-39 40 61 0 
-14 -51 62 0 
-5 -36 -53 0 
-5 -10 -54 0 
14 -68 -69 0 
-5 -19 64 0 
9 -17 45 0 
23 -35 -67 0 
-1 51 -56 0 
-6 22 41 0 
-9 46 -64 0 
-5 46 -67 0 
-16 23 -39 0 
-19 -20 66 0 
6 -30 37 0 
5 9 47 0 
-20 -20 -33 0 
1 -15 32 0 
48 57 -67 0 
23 50 53 0 
-13 -47 68 0 
-3 -48 -65 0 
4 -24 64 0 
-5 19 -39 0 
-26 -48 -55 0 
-8 31 31 0 
-4 45 -64 0 
-16 -35 -57 0 
52 -53 54 0 
-4 20 58 0 
36 -41 49 0 
-15 41 53 0 
12 -54 -68 0 
-10 51 -61 0 
